TCS_Benchmarks/redos_fix/regexlib1_output_distinct_4823_4822_0_0.smt2
(set-logic QF_S)
(declare-const x String)
(assert (str.in.re x (re.inter  (re.++ (re.* (re.comp  (str.to.re "\u{3e}")) ) (re.+ (re.comp  (re.union (re.union (re.range "\u{09}" "\u{0d}") (re.range "\u{20}" "\u{20}") (re.range "\u{85}" "\u{85}") (re.range "\u{a0}" "\u{a0}"))  (str.to.re "\u{3e}"))) ))  (re.++ (re.* (re.comp  (str.to.re "\u{3e}")) ) (re.++  (re.++  (re.union  (str.to.re "\u{72}")  (str.to.re "\u{52}")) (re.++  (re.union  (str.to.re "\u{75}")  (str.to.re "\u{55}")) (re.++  (re.union  (str.to.re "\u{6e}")  (str.to.re "\u{4e}")) (re.++  (re.union  (str.to.re "\u{61}")  (str.to.re "\u{41}")) (re.++  (re.union  (str.to.re "\u{74}")  (str.to.re "\u{54}")) (re.++  (str.to.re "\u{3d}") (re.++ (re.opt  (str.to.re "\u{22}") ) (re.++  (re.union  (str.to.re "\u{73}")  (str.to.re "\u{53}")) (re.++  (re.union  (str.to.re "\u{65}")  (str.to.re "\u{45}")) (re.++  (re.union  (str.to.re "\u{72}")  (str.to.re "\u{52}")) (re.++  (re.union  (str.to.re "\u{76}")  (str.to.re "\u{56}")) (re.++  (re.union  (str.to.re "\u{65}")  (str.to.re "\u{45}")) (re.++  (re.union  (str.to.re "\u{72}")  (str.to.re "\u{52}")) (re.union (re.range "\u{00}" "\u{08}") (re.range "\u{0e}" "\u{1f}") (re.range "\u{21}" "\u{84}") (re.range "\u{86}" "\u{9f}") (re.range "\u{a1}" "\u{ff}"))))))))))))))) (re.+ (re.comp  (re.union (re.union (re.range "\u{09}" "\u{0d}") (re.range "\u{20}" "\u{20}") (re.range "\u{85}" "\u{85}") (re.range "\u{a0}" "\u{a0}"))  (str.to.re "\u{3e}"))) ))) )))
(check-sat)
(get-model)