TCS_Benchmarks/redos_fix/regexlib1_output_distinct_4823_4822_0_0.txt
([^>]*)([^\s>]+)
([^>]*)([rR][uU][nN][aA][tT]=[\"]?[sS][eE][rR][vV][eE][rR]\S)([^\s>]+)